% Logging successfully configured
%%%mzn-stat: initTime=0.008165258
%%%mzn-stat: objective=1200
%%%mzn-stat: nodes=443
%%%mzn-stat: restarts=0
%%%mzn-stat: peakDepth=443
%%%mzn-stat: solveTime=0.002625816
%%%mzn-stat: variables=1019
%%%mzn-stat: propagators=648
%%%mzn-stat: failures=0
%%%mzn-stat: propagations=2070
%%%mzn-stat: nogoods=0
%%%mzn-stat: numAtomicConstraintsPropagated=0
%%%mzn-stat: circuitNumber1PropagationsTotal=60
%%%mzn-stat: circuitNumber1CircuitConflicts=0
%%%mzn-stat: circuitNumber1AlldiffConflicts=0
%%%mzn-stat: circuitNumber1TotalFixedEdgesAtConflict=0
%%%mzn-stat: circuitNumber1NumberOfConflicts=0
%%%mzn-stat: circuitNumber1GacPrunings=177
%%%mzn-stat: circuitNumber1PropagationsThatGacPruned=29
%%%mzn-stat: circuitNumber1TotalPruningHallSetSize=1062
%%%mzn-stat: circuitNumber1NumberOfPruningExplanations=177
%%%mzn-stat: circuitNumber1MaxPruningHallSetSize=36
%%%mzn-stat: circuitNumber1TotalSccSizeAtPruning=308
%%%mzn-stat: circuitNumber1NumberOfSccPruningCalls=29
%%%mzn-stat: circuitNumber1TotalVarsInvolvedInPruning=143
%%%mzn-stat: circuitNumber1MaxValuesPrunedFromSingleVar=6
%%%mzn-stat: circuitNumber1HallCircuitChecks=73
%%%mzn-stat: circuitNumber1HallCircuitPrunings=1
%%%mzn-stat: circuitNumber1CircuitPreventPrunings=14
%%%mzn-stat: AverageConflictSize=0
%%%mzn-stat: NumUnitNogoodsLearned=0
%%%mzn-stat: AverageLearnedNogoodLength=0
%%%mzn-stat: AverageBacktrackAmount=0
%%%mzn-stat: AverageLbd=0
%%%mzn-stat: 2AutonomousSearchNumBackupCalled=415
%%%mzn-stat: 2AutonomousSearchNumPredicatesRemoved=0
%%%mzn-stat: 2AutonomousSearchNumCalls=416
%%%mzn-stat: 2AutonomousSearchNumPredicatesAdded=0
%%%mzn-stat: 2AutonomousSearchAverageSizeOfHeap=0
%%%mzn-stat: 2AutonomousSearchNumAssignedPredicatesEncountered=0
%%%mzn-stat-end
maxleg = 1200;
succ = array1d(1..50,[11, 7, 2, 5, 6, 13, 4, 3, 31, 9, 8, 14, 21, 15, 30, 1, 18, 20, 10, 29, 17, 26, 28, 23, 42, 24, 25, 12, 43, 50, 22, 34, 46, 48, 39, 33, 35, 32, 41, 27, 47, 16, 19, 40, 38, 44, 49, 36, 45, 37]);
% time elapsed: 3.51 s
----------
%%%mzn-stat: initTime=0.008165258
%%%mzn-stat: objective=1115
%%%mzn-stat: nodes=879
%%%mzn-stat: restarts=0
%%%mzn-stat: peakDepth=443
%%%mzn-stat: solveTime=0.005236694
%%%mzn-stat: variables=1019
%%%mzn-stat: propagators=648
%%%mzn-stat: failures=0
%%%mzn-stat: propagations=3105
%%%mzn-stat: nogoods=0
%%%mzn-stat: numAtomicConstraintsPropagated=0
%%%mzn-stat: circuitNumber1PropagationsTotal=114
%%%mzn-stat: circuitNumber1CircuitConflicts=0
%%%mzn-stat: circuitNumber1AlldiffConflicts=0
%%%mzn-stat: circuitNumber1TotalFixedEdgesAtConflict=0
%%%mzn-stat: circuitNumber1NumberOfConflicts=0
%%%mzn-stat: circuitNumber1GacPrunings=362
%%%mzn-stat: circuitNumber1PropagationsThatGacPruned=56
%%%mzn-stat: circuitNumber1TotalPruningHallSetSize=2433
%%%mzn-stat: circuitNumber1NumberOfPruningExplanations=362
%%%mzn-stat: circuitNumber1MaxPruningHallSetSize=49
%%%mzn-stat: circuitNumber1TotalSccSizeAtPruning=708
%%%mzn-stat: circuitNumber1NumberOfSccPruningCalls=56
%%%mzn-stat: circuitNumber1TotalVarsInvolvedInPruning=285
%%%mzn-stat: circuitNumber1MaxValuesPrunedFromSingleVar=6
%%%mzn-stat: circuitNumber1HallCircuitChecks=136
%%%mzn-stat: circuitNumber1HallCircuitPrunings=1
%%%mzn-stat: circuitNumber1CircuitPreventPrunings=25
%%%mzn-stat: AverageConflictSize=0
%%%mzn-stat: NumUnitNogoodsLearned=0
%%%mzn-stat: AverageLearnedNogoodLength=0
%%%mzn-stat: AverageBacktrackAmount=0
%%%mzn-stat: AverageLbd=0
%%%mzn-stat: 2AutonomousSearchNumBackupCalled=826
%%%mzn-stat: 2AutonomousSearchNumPredicatesRemoved=0
%%%mzn-stat: 2AutonomousSearchNumCalls=828
%%%mzn-stat: 2AutonomousSearchNumPredicatesAdded=0
%%%mzn-stat: 2AutonomousSearchAverageSizeOfHeap=0
%%%mzn-stat: 2AutonomousSearchNumAssignedPredicatesEncountered=0
%%%mzn-stat-end
maxleg = 1115;
succ = array1d(1..50,[11, 7, 2, 5, 6, 13, 4, 3, 31, 9, 8, 14, 21, 15, 34, 1, 18, 20, 10, 29, 17, 26, 28, 23, 42, 24, 25, 12, 48, 50, 22, 33, 46, 30, 39, 47, 35, 32, 41, 27, 43, 16, 44, 40, 38, 19, 49, 36, 45, 37]);
% time elapsed: 3.51 s
----------
==========
% time elapsed: 3.51 s
%%%mzn-stat: initTime=0.008165258
%%%mzn-stat: objective=1115
%%%mzn-stat: nodes=879
%%%mzn-stat: restarts=0
%%%mzn-stat: peakDepth=443
%%%mzn-stat: solveTime=0.005373463
%%%mzn-stat: variables=1019
%%%mzn-stat: propagators=648
%%%mzn-stat: failures=1
%%%mzn-stat: propagations=3122
%%%mzn-stat: nogoods=1
%%%mzn-stat: numAtomicConstraintsPropagated=0
%%%mzn-stat: circuitNumber1PropagationsTotal=115
%%%mzn-stat: circuitNumber1CircuitConflicts=0
%%%mzn-stat: circuitNumber1AlldiffConflicts=1
%%%mzn-stat: circuitNumber1TotalFixedEdgesAtConflict=0
%%%mzn-stat: circuitNumber1NumberOfConflicts=1
%%%mzn-stat: circuitNumber1GacPrunings=362
%%%mzn-stat: circuitNumber1PropagationsThatGacPruned=56
%%%mzn-stat: circuitNumber1TotalPruningHallSetSize=2433
%%%mzn-stat: circuitNumber1NumberOfPruningExplanations=362
%%%mzn-stat: circuitNumber1MaxPruningHallSetSize=49
%%%mzn-stat: circuitNumber1TotalSccSizeAtPruning=708
%%%mzn-stat: circuitNumber1NumberOfSccPruningCalls=56
%%%mzn-stat: circuitNumber1TotalVarsInvolvedInPruning=285
%%%mzn-stat: circuitNumber1MaxValuesPrunedFromSingleVar=6
%%%mzn-stat: circuitNumber1HallCircuitChecks=136
%%%mzn-stat: circuitNumber1HallCircuitPrunings=1
%%%mzn-stat: circuitNumber1CircuitPreventPrunings=25
%%%mzn-stat: AverageConflictSize=2
%%%mzn-stat: NumUnitNogoodsLearned=1
%%%mzn-stat: AverageLearnedNogoodLength=1
%%%mzn-stat: AverageBacktrackAmount=0
%%%mzn-stat: AverageLbd=1
%%%mzn-stat: 2AutonomousSearchNumBackupCalled=826
%%%mzn-stat: 2AutonomousSearchNumPredicatesRemoved=0
%%%mzn-stat: 2AutonomousSearchNumCalls=828
%%%mzn-stat: 2AutonomousSearchNumPredicatesAdded=13
%%%mzn-stat: 2AutonomousSearchAverageSizeOfHeap=0
%%%mzn-stat: 2AutonomousSearchNumAssignedPredicatesEncountered=0
%%%mzn-stat-end
